procurement2mot.py
Ipopt 3.12: 
==> Warning: Treating 60 binary and 0 integer variables as continous.


******************************************************************************
This program contains Ipopt, a library for large-scale nonlinear optimization.
 Ipopt is released as open source code under the Eclipse Public License (EPL).
         For more information visit http://projects.coin-or.org/Ipopt
******************************************************************************

This is Ipopt version 3.12, running with linear solver ma27.

Number of nonzeros in equality constraint Jacobian...:     1844
Number of nonzeros in inequality constraint Jacobian.:      292
Number of nonzeros in Lagrangian Hessian.............:       12

Total number of variables............................:      786
                     variables with only lower bounds:      436
                variables with lower and upper bounds:      350
                     variables with only upper bounds:        0
Total number of equality constraints.................:      618
Total number of inequality constraints...............:      143
        inequality constraints with only lower bounds:       34
   inequality constraints with lower and upper bounds:        0
        inequality constraints with only upper bounds:      109

iter    objective    inf_pr   inf_du lg(mu)  ||d||  lg(rg) alpha_du alpha_pr  ls
   0 -1.9167620e+02 9.90e-01 1.06e+01  -1.0 0.00e+00    -  0.00e+00 0.00e+00   0
   1 -1.8719306e+02 9.18e-01 9.85e+00  -1.0 1.03e+00    -  7.84e-02 7.30e-02f  1
   2 -1.7494833e+02 7.71e-01 8.97e+00  -1.0 1.12e+00    -  1.11e-01 1.60e-01f  1
   3 -1.3463164e+02 3.02e-01 1.03e+01  -1.0 7.55e-01    -  2.02e-01 6.09e-01f  1
   4 -1.0426534e+02 6.26e-02 2.12e+01  -1.0 8.62e-01    -  3.28e-01 8.42e-01f  1
   5 -1.2909404e+02 4.38e-02 6.91e+01  -1.0 1.42e+00    -  1.19e-01 1.00e+00f  1
   6 -1.5362712e+02 5.37e-02 8.06e+00  -1.0 1.73e+00    -  5.71e-01 1.00e+00f  1
   7 -1.9722921e+02 8.47e-02 2.06e+01  -1.0 4.07e+00    -  4.79e-01 1.00e+00f  1
   8 -2.3653160e+02 9.46e-02 3.80e+00  -1.0 7.04e+00    -  7.14e-01 1.00e+00f  1
   9 -2.8374519e+02 1.69e-01 1.75e+00  -1.0 1.33e+01    -  6.02e-01 1.00e+00f  1
iter    objective    inf_pr   inf_du lg(mu)  ||d||  lg(rg) alpha_du alpha_pr  ls
  10 -2.7718951e+02 8.53e-02 5.60e-01  -1.0 1.49e+01    -  8.21e-01 1.00e+00f  1
  11 -2.8415771e+02 2.30e-02 1.18e-01  -1.7 8.89e+00    -  8.44e-01 8.92e-01f  1
  12 -2.8856505e+02 4.30e-03 8.07e-02  -2.5 5.33e+00    -  6.24e-01 9.28e-01f  1
  13 -2.8884344e+02 7.48e-05 3.98e-03  -2.5 1.24e+00    -  9.56e-01 1.00e+00h  1
  14 -2.8956734e+02 7.00e-05 5.10e-03  -3.8 2.33e+00    -  8.17e-01 1.00e+00f  1
  15 -2.8957452e+02 1.42e-14 2.94e-07  -3.8 3.85e-01    -  1.00e+00 1.00e+00h  1
  16 -2.8961295e+02 5.07e-08 8.33e-07  -5.7 9.29e-02    -  1.00e+00 1.00e+00f  1
  17 -2.8961343e+02 2.22e-10 1.05e-03  -8.6 1.83e-03    -  1.00e+00 9.93e-01h  1
  18 -2.8961343e+02 7.11e-15 5.17e-01  -8.6 3.82e-01    -  1.00e+00 9.07e-01f  1
  19 -2.8961343e+02 7.11e-15 2.66e-14  -8.6 4.52e-02    -  1.00e+00 1.00e+00f  1

Number of Iterations....: 19

                                   (scaled)                 (unscaled)
Objective...............:  -2.8961343012712319e+02   -2.8961343012712319e+02
Dual infeasibility......:   2.6645352591003757e-14    2.6645352591003757e-14
Constraint violation....:   7.1054273576010019e-15    7.1054273576010019e-15
Complementarity.........:   4.0278500974772529e-09    4.0278500974772529e-09
Overall NLP error.......:   4.0278500974772529e-09    4.0278500974772529e-09


Number of objective function evaluations             = 20
Number of objective gradient evaluations             = 20
Number of equality constraint evaluations            = 20
Number of inequality constraint evaluations          = 20
Number of equality constraint Jacobian evaluations   = 20
Number of inequality constraint Jacobian evaluations = 20
Number of Lagrangian Hessian evaluations             = 19
Total CPU secs in IPOPT (w/o function evaluations)   =      0.017
Total CPU secs in NLP function evaluations           =      0.001

EXIT: Optimal Solution Found.

Time elapsed: 0.16222429275512695